#! Example potential energy surface scan and CP-correction for Ne2

molecule dimer {
  Ne
--
  Ne 1 3.0
}

set basis aug-cc-pVDZ
ecp = energy('ccsd(t)', bsse_type = 'cp')
